310364.95,14.94,16.37
312265.67,14.85,16.27
305789.88,15.17,16.61
316734.34,14.64,16.04
289634.79,16.01,17.54
299888.28,15.46,16.94
319576.09,14.51,15.9
304639.53,15.22,16.68
299769.15,15.47,16.95
308912.55,15.01,16.44
291489.48,15.91,17.43
302196.06,15.35,16.81
306147.05,15.15,16.59
304260.12,15.24,16.7
306312.7,15.14,16.58
322598.18,14.38,15.75
301920.91,15.36,16.83
295321.18,15.7,17.2
305455.08,15.18,16.63
320165.94,14.49,15.87
